! 40 m dipole, 20.00 m total, before trimming
! Synthetic sweep generated for NereusSDR — not a real measurement.
! See docs/antenna/README.md for the values this must produce.
# MHZ S RI R 50
6.900000 +0.309813943 -0.554767820
6.903000 +0.304374710 -0.552083563
6.906000 +0.298937923 -0.549316009
6.909000 +0.293505171 -0.546464496
6.912000 +0.288078081 -0.543528398
6.915000 +0.282658311 -0.540507120
6.918000 +0.277247554 -0.537400107
6.921000 +0.271847535 -0.534206838
6.924000 +0.266460009 -0.530926832
6.927000 +0.261086765 -0.527559650
6.930000 +0.255729620 -0.524104893
6.933000 +0.250390422 -0.520562207
6.936000 +0.245071043 -0.516931283
6.939000 +0.239773387 -0.513211857
6.942000 +0.234499380 -0.509403715
6.945000 +0.229250972 -0.505506693
6.948000 +0.224030139 -0.501520675
6.951000 +0.218838876 -0.497445600
6.954000 +0.213679197 -0.493281459
6.957000 +0.208553138 -0.489028300
6.960000 +0.203462748 -0.484686224
6.963000 +0.198410093 -0.480255391
6.966000 +0.193397251 -0.475736020
6.969000 +0.188426311 -0.471128389
6.972000 +0.183499373 -0.466432836
6.975000 +0.178618542 -0.461649760
6.978000 +0.173785930 -0.456779623
6.981000 +0.169003650 -0.451822951
6.984000 +0.164273817 -0.446780331
6.987000 +0.159598546 -0.441652416
6.990000 +0.154979944 -0.436439924
6.993000 +0.150420115 -0.431143638
6.996000 +0.145921156 -0.425764406
6.999000 +0.141485148 -0.420303142
7.002000 +0.137114163 -0.414760825
7.005000 +0.132810256 -0.409138503
7.008000 +0.128575463 -0.403437286
7.011000 +0.124411799 -0.397658351
7.014000 +0.120321255 -0.391802941
7.017000 +0.116305798 -0.385872363
7.020000 +0.112367365 -0.379867988
7.023000 +0.108507863 -0.373791253
7.026000 +0.104729163 -0.367643653
7.029000 +0.101033102 -0.361426750
7.032000 +0.097421479 -0.355142164
7.035000 +0.093896049 -0.348791575
7.038000 +0.090458527 -0.342376723
7.041000 +0.087110580 -0.335899403
7.044000 +0.083853828 -0.329361468
7.047000 +0.080689839 -0.322764823
7.050000 +0.077620129 -0.316111427
7.053000 +0.074646162 -0.309403290
7.056000 +0.071769340 -0.302642467
7.059000 +0.068991011 -0.295831065
7.062000 +0.066312459 -0.288971231
7.065000 +0.063734908 -0.282065158
7.068000 +0.061259515 -0.275115076
7.071000 +0.058887374 -0.268123255
7.074000 +0.056619511 -0.261092000
7.077000 +0.054456880 -0.254023648
7.080000 +0.052400370 -0.246920567
7.083000 +0.050450796 -0.239785153
7.086000 +0.048608900 -0.232619824
7.089000 +0.046875353 -0.225427025
7.092000 +0.045250750 -0.218209217
7.095000 +0.043735613 -0.210968878
7.098000 +0.042330387 -0.203708501
7.101000 +0.041035443 -0.196430590
7.104000 +0.039851074 -0.189137655
7.107000 +0.038777500 -0.181832213
7.110000 +0.037814861 -0.174516784
7.113000 +0.036963224 -0.167193885
7.116000 +0.036222579 -0.159866031
7.119000 +0.035592840 -0.152535731
7.122000 +0.035073847 -0.145205485
7.125000 +0.034665365 -0.137877780
7.128000 +0.034367084 -0.130555089
7.131000 +0.034178625 -0.123239869
7.134000 +0.034099533 -0.115934555
7.137000 +0.034129284 -0.108641561
7.140000 +0.034267284 -0.101363276
7.143000 +0.034512871 -0.094102059
7.146000 +0.034865317 -0.086860243
7.149000 +0.035323826 -0.079640127
7.152000 +0.035887539 -0.072443975
7.155000 +0.036555537 -0.065274015
7.158000 +0.037326838 -0.058132437
7.161000 +0.038200402 -0.051021391
7.164000 +0.039175132 -0.043942982
7.167000 +0.040249876 -0.036899274
7.170000 +0.041423430 -0.029892284
7.173000 +0.042694540 -0.022923981
7.176000 +0.044061900 -0.015996287
7.179000 +0.045524161 -0.009111071
7.182000 +0.047079927 -0.002270155
7.185000 +0.048727762 +0.004524697
7.188000 +0.050466189 +0.011271769
7.191000 +0.052293694 +0.017969403
7.194000 +0.054208726 +0.024615995
7.197000 +0.056209703 +0.031209997
7.200000 +0.058295012 +0.037749917
7.203000 +0.060463009 +0.044234322
7.206000 +0.062712028 +0.050661833
7.209000 +0.065040375 +0.057031133
7.212000 +0.067446337 +0.063340960
7.215000 +0.069928179 +0.069590110
7.218000 +0.072484151 +0.075777439
7.221000 +0.075112487 +0.081901858
7.224000 +0.077811409 +0.087962340
7.227000 +0.080579125 +0.093957912
7.230000 +0.083413838 +0.099887659
7.233000 +0.086313741 +0.105750724
7.236000 +0.089277025 +0.111546306
7.239000 +0.092301876 +0.117273659
7.242000 +0.095386479 +0.122932094
7.245000 +0.098529020 +0.128520973
7.248000 +0.101727689 +0.134039716
7.251000 +0.104980679 +0.139487793
7.254000 +0.108286188 +0.144864728
7.257000 +0.111642423 +0.150170095
7.260000 +0.115047598 +0.155403519
7.263000 +0.118499941 +0.160564674
7.266000 +0.121997687 +0.165653282
7.269000 +0.125539088 +0.170669114
7.272000 +0.129122409 +0.175611985
7.275000 +0.132745932 +0.180481755
7.278000 +0.136407952 +0.185278330
7.281000 +0.140106787 +0.190001657
7.284000 +0.143840771 +0.194651725
7.287000 +0.147608258 +0.199228562
7.290000 +0.151407623 +0.203732239
7.293000 +0.155237264 +0.208162861
7.296000 +0.159095599 +0.212520570
7.299000 +0.162981072 +0.216805546
7.302000 +0.166892148 +0.221018001
7.305000 +0.170827319 +0.225158180
7.308000 +0.174785100 +0.229226361
7.311000 +0.178764033 +0.233222852
7.314000 +0.182762685 +0.237147989
7.317000 +0.186779650 +0.241002138
7.320000 +0.190813548 +0.244785691
7.323000 +0.194863027 +0.248499066
7.326000 +0.198926762 +0.252142703
7.329000 +0.203003455 +0.255717070
7.332000 +0.207091836 +0.259222653
7.335000 +0.211190664 +0.262659961
7.338000 +0.215298723 +0.266029523
7.341000 +0.219414828 +0.269331886
7.344000 +0.223537821 +0.272567615
7.347000 +0.227666571 +0.275737292
7.350000 +0.231799976 +0.278841515
7.353000 +0.235936962 +0.281880895
7.356000 +0.240076483 +0.284856059
7.359000 +0.244217518 +0.287767646
7.362000 +0.248359078 +0.290616306
7.365000 +0.252500197 +0.293402700
7.368000 +0.256639939 +0.296127501
7.371000 +0.260777393 +0.298791388
7.374000 +0.264911675 +0.301395050
7.377000 +0.269041928 +0.303939185
7.380000 +0.273167320 +0.306424495
7.383000 +0.277287047 +0.308851689
7.386000 +0.281400327 +0.311221483
7.389000 +0.285506405 +0.313534596
7.392000 +0.289604551 +0.315791749
7.395000 +0.293694058 +0.317993671
7.398000 +0.297774245 +0.320141088
7.401000 +0.301844453 +0.322234733
7.404000 +0.305904046 +0.324275338
7.407000 +0.309952411 +0.326263635
7.410000 +0.313988959 +0.328200359
7.413000 +0.318013122 +0.330086241
7.416000 +0.322024352 +0.331922016
7.419000 +0.326022125 +0.333708414
7.422000 +0.330005936 +0.335446165
7.425000 +0.333975300 +0.337135997
7.428000 +0.337929753 +0.338778635
7.431000 +0.341868850 +0.340374802
7.434000 +0.345792166 +0.341925217
7.437000 +0.349699292 +0.343430597
7.440000 +0.353589841 +0.344891652
7.443000 +0.357463440 +0.346309091
7.446000 +0.361319737 +0.347683617
7.449000 +0.365158394 +0.349015929
7.452000 +0.368979090 +0.350306721
7.455000 +0.372781522 +0.351556681
7.458000 +0.376565401 +0.352766491
7.461000 +0.380330454 +0.353936830
7.464000 +0.384076423 +0.355068368
7.467000 +0.387803063 +0.356161771
7.470000 +0.391510145 +0.357217699
7.473000 +0.395197453 +0.358236803
7.476000 +0.398864784 +0.359219730
7.479000 +0.402511950 +0.360167121
7.482000 +0.406138772 +0.361079606
7.485000 +0.409745086 +0.361957814
7.488000 +0.413330739 +0.362802362
7.491000 +0.416895589 +0.363613862
7.494000 +0.420439507 +0.364392919
7.497000 +0.423962373 +0.365140130
7.500000 +0.427464077 +0.365856087
