! same dipole, 20.22 m total, after adding 11 cm per leg
! Synthetic sweep generated for NereusSDR — not a real measurement.
! See docs/antenna/README.md for the values this must produce.
# MHZ S RI R 50
6.900000 +0.242802538 -0.505387583
6.903000 +0.237647200 -0.501582252
6.906000 +0.232518244 -0.497690441
6.909000 +0.227417589 -0.493712078
6.912000 +0.222347170 -0.489647144
6.915000 +0.217308941 -0.485495670
6.918000 +0.212304873 -0.481257742
6.921000 +0.207336950 -0.476933499
6.924000 +0.202407171 -0.472523136
6.927000 +0.197517544 -0.468026906
6.930000 +0.192670087 -0.463445115
6.933000 +0.187866828 -0.458778132
6.936000 +0.183109796 -0.454026383
6.939000 +0.178401026 -0.449190354
6.942000 +0.173742555 -0.444270591
6.945000 +0.169136418 -0.439267702
6.948000 +0.164584647 -0.434182356
6.951000 +0.160089270 -0.429015286
6.954000 +0.155652308 -0.423767284
6.957000 +0.151275770 -0.418439207
6.960000 +0.146961656 -0.413031975
6.963000 +0.142711950 -0.407546569
6.966000 +0.138528620 -0.401984034
6.969000 +0.134413615 -0.396345478
6.972000 +0.130368861 -0.390632070
6.975000 +0.126396264 -0.384845043
6.978000 +0.122497701 -0.378985690
6.981000 +0.118675020 -0.373055365
6.984000 +0.114930039 -0.367055483
6.987000 +0.111264544 -0.360987517
6.990000 +0.107680283 -0.354853001
6.993000 +0.104178968 -0.348653525
6.996000 +0.100762268 -0.342390734
6.999000 +0.097431813 -0.336066332
7.002000 +0.094189184 -0.329682073
7.005000 +0.091035920 -0.323239766
7.008000 +0.087973506 -0.316741269
7.011000 +0.085003379 -0.310188490
7.014000 +0.082126922 -0.303583385
7.017000 +0.079345463 -0.296927955
7.020000 +0.076660273 -0.290224245
7.023000 +0.074072564 -0.283474341
7.026000 +0.071583489 -0.276680370
7.029000 +0.069194137 -0.269844493
7.032000 +0.066905536 -0.262968911
7.035000 +0.064718647 -0.256055854
7.038000 +0.062634367 -0.249107584
7.041000 +0.060653525 -0.242126390
7.044000 +0.058776880 -0.235114588
7.047000 +0.057005124 -0.228074516
7.050000 +0.055338879 -0.221008531
7.053000 +0.053778694 -0.213919010
7.056000 +0.052325049 -0.206808343
7.059000 +0.050978351 -0.199678934
7.062000 +0.049738933 -0.192533195
7.065000 +0.048607060 -0.185373546
7.068000 +0.047582919 -0.178202411
7.071000 +0.046666628 -0.171022216
7.074000 +0.045858231 -0.163835384
7.077000 +0.045157701 -0.156644335
7.080000 +0.044564938 -0.149451483
7.083000 +0.044079770 -0.142259232
7.086000 +0.043701956 -0.135069974
7.089000 +0.043431183 -0.127886087
7.092000 +0.043267071 -0.120709933
7.095000 +0.043209168 -0.113543851
7.098000 +0.043256959 -0.106390163
7.101000 +0.043409860 -0.099251163
7.104000 +0.043667222 -0.092129119
7.107000 +0.044028333 -0.085026271
7.110000 +0.044492421 -0.077944829
7.113000 +0.045058649 -0.070886967
7.116000 +0.045726123 -0.063854827
7.119000 +0.046493893 -0.056850512
7.122000 +0.047360950 -0.049876087
7.125000 +0.048326233 -0.042933577
7.128000 +0.049388630 -0.036024963
7.131000 +0.050546976 -0.029152183
7.134000 +0.051800060 -0.022317132
7.137000 +0.053146622 -0.015521655
7.140000 +0.054585362 -0.008767551
7.143000 +0.056114933 -0.002056570
7.146000 +0.057733952 +0.004609589
7.149000 +0.059440995 +0.011229277
7.152000 +0.061234605 +0.017800898
7.155000 +0.063113288 +0.024322907
7.158000 +0.065075520 +0.030793814
7.161000 +0.067119750 +0.037212183
7.164000 +0.069244395 +0.043576630
7.167000 +0.071447852 +0.049885829
7.170000 +0.073728491 +0.056138507
7.173000 +0.076084662 +0.062333447
7.176000 +0.078514699 +0.068469487
7.179000 +0.081016917 +0.074545520
7.182000 +0.083589615 +0.080560495
7.185000 +0.086231083 +0.086513416
7.188000 +0.088939598 +0.092403343
7.191000 +0.091713429 +0.098229388
7.194000 +0.094550839 +0.103990719
7.197000 +0.097450084 +0.109686559
7.200000 +0.100409419 +0.115316182
7.203000 +0.103427097 +0.120878916
7.206000 +0.106501373 +0.126374140
7.209000 +0.109630500 +0.131801286
7.212000 +0.112812739 +0.137159837
7.215000 +0.116046355 +0.142449322
7.218000 +0.119329618 +0.147669325
7.221000 +0.122660809 +0.152819472
7.224000 +0.126038218 +0.157899442
7.227000 +0.129460144 +0.162908956
7.230000 +0.132924901 +0.167847782
7.233000 +0.136430815 +0.172715732
7.236000 +0.139976226 +0.177512662
7.239000 +0.143559491 +0.182238468
7.242000 +0.147178985 +0.186893090
7.245000 +0.150833098 +0.191476505
7.248000 +0.154520240 +0.195988732
7.251000 +0.158238841 +0.200429824
7.254000 +0.161987351 +0.204799873
7.257000 +0.165764241 +0.209099006
7.260000 +0.169568005 +0.213327383
7.263000 +0.173397158 +0.217485199
7.266000 +0.177250239 +0.221572679
7.269000 +0.181125811 +0.225590078
7.272000 +0.185022460 +0.229537684
7.275000 +0.188938797 +0.233415810
7.278000 +0.192873459 +0.237224798
7.281000 +0.196825108 +0.240965015
7.284000 +0.200792430 +0.244636853
7.287000 +0.204774140 +0.248240728
7.290000 +0.208768976 +0.251777080
7.293000 +0.212775705 +0.255246368
7.296000 +0.216793119 +0.258649074
7.299000 +0.220820037 +0.261985698
7.302000 +0.224855305 +0.265256758
7.305000 +0.228897794 +0.268462792
7.308000 +0.232946405 +0.271604352
7.311000 +0.237000062 +0.274682006
7.314000 +0.241057718 +0.277696336
7.317000 +0.245118352 +0.280647939
7.320000 +0.249180969 +0.283537424
7.323000 +0.253244601 +0.286365410
7.326000 +0.257308305 +0.289132530
7.329000 +0.261371165 +0.291839424
7.332000 +0.265432291 +0.294486743
7.335000 +0.269490817 +0.297075147
7.338000 +0.273545903 +0.299605301
7.341000 +0.277596734 +0.302077879
7.344000 +0.281642521 +0.304493561
7.347000 +0.285682496 +0.306853032
7.350000 +0.289715919 +0.309156981
7.353000 +0.293742071 +0.311406102
7.356000 +0.297760257 +0.313601094
7.359000 +0.301769807 +0.315742655
7.362000 +0.305770072 +0.317831488
7.365000 +0.309760424 +0.319868298
7.368000 +0.313740260 +0.321853790
7.371000 +0.317708998 +0.323788670
7.374000 +0.321666075 +0.325673644
7.377000 +0.325610950 +0.327509418
7.380000 +0.329543105 +0.329296696
7.383000 +0.333462038 +0.331036183
7.386000 +0.337367270 +0.332728581
7.389000 +0.341258339 +0.334374590
7.392000 +0.345134803 +0.335974908
7.395000 +0.348996238 +0.337530229
7.398000 +0.352842239 +0.339041246
7.401000 +0.356672418 +0.340508646
7.404000 +0.360486404 +0.341933115
7.407000 +0.364283843 +0.343315333
7.410000 +0.368064398 +0.344655976
7.413000 +0.371827748 +0.345955716
7.416000 +0.375573586 +0.347215221
7.419000 +0.379301624 +0.348435151
7.422000 +0.383011585 +0.349616163
7.425000 +0.386703209 +0.350758910
7.428000 +0.390376249 +0.351864036
7.431000 +0.394030472 +0.352932181
7.434000 +0.397665659 +0.353963979
7.437000 +0.401281603 +0.354960058
7.440000 +0.404878111 +0.355921039
7.443000 +0.408455002 +0.356847538
7.446000 +0.412012105 +0.357740163
7.449000 +0.415549264 +0.358599516
7.452000 +0.419066331 +0.359426193
7.455000 +0.422563172 +0.360220782
7.458000 +0.426039661 +0.360983866
7.461000 +0.429495684 +0.361716018
7.464000 +0.432931136 +0.362417808
7.467000 +0.436345923 +0.363089796
7.470000 +0.439739959 +0.363732537
7.473000 +0.443113167 +0.364346576
7.476000 +0.446465480 +0.364932455
7.479000 +0.449796839 +0.365490705
7.482000 +0.453107193 +0.366021852
7.485000 +0.456396499 +0.366526414
7.488000 +0.459664721 +0.367004904
7.491000 +0.462911832 +0.367457825
7.494000 +0.466137812 +0.367885673
7.497000 +0.469342645 +0.368288939
7.500000 +0.472526325 +0.368668106
